[VALIDATOR STDOUT]
Checking plan: /home/jfan5/Safety-gen/runs/benchmark/optic/delivery_20260201_172908/delivery/optic_results/delivery_size18_packages1_seed18001.plan
Plan executed successfully - checking goal
Plan valid
Final value: 142 

Successful plans:
Value: 142
 /home/jfan5/Safety-gen/runs/benchmark/optic/delivery_20260201_172908/delivery/optic_results/delivery_size18_packages1_seed18001.plan 142
